
Gurobi 10.0.1 (win64) logging started Thu Oct  5 12:31:48 2023

Set parameter LogFile to value "./results//log/BA_09_makespan_heurTrue.log"
Gurobi Optimizer version 10.0.1 build v10.0.1rc0 (win64)

CPU model: AMD Ryzen 7 3700X 8-Core Processor, instruction set [SSE2|AVX|AVX2]
Thread count: 8 physical cores, 16 logical processors, using up to 16 threads

Optimize a model with 95 rows, 100 columns and 337 nonzeros
Model fingerprint: 0xa3abd070
Variable types: 0 continuous, 100 integer (90 binary)
Coefficient statistics:
  Matrix range     [1e+00, 1e+07]
  Objective range  [1e+00, 1e+00]
  Bounds range     [1e+00, 1e+00]
  RHS range        [1e+00, 3e+07]

User MIP start produced solution with objective 166 (0.00s)
Loaded user MIP start with objective 166

Presolve removed 51 rows and 75 columns
Presolve time: 0.00s
Presolved: 44 rows, 25 columns, 124 nonzeros
Variable types: 0 continuous, 25 integer (18 binary)

Root relaxation: objective 6.200000e+01, 15 iterations, 0.00 seconds (0.00 work units)

    Nodes    |    Current Node    |     Objective Bounds      |     Work
 Expl Unexpl |  Obj  Depth IntInf | Incumbent    BestBd   Gap | It/Node Time

     0     0   62.00000    0   10  166.00000   62.00000  62.7%     -    0s
H    0     0                     143.0000000   62.00000  56.6%     -    0s
H    0     0                     142.0000000   62.00000  56.3%     -    0s
H    0     0                     121.0000000   78.00000  35.5%     -    0s
H    0     0                     110.0000000   78.00000  29.1%     -    0s
     0     0   78.00000    0    8  110.00000   78.00000  29.1%     -    0s
H    0     0                     108.0000000   78.00000  27.8%     -    0s
     0     0   78.00000    0    8  108.00000   78.00000  27.8%     -    0s
H    0     0                      98.0000000   78.00000  20.4%     -    0s
     0     0   88.00000    0    4   98.00000   88.00000  10.2%     -    0s
     0     0   88.00000    0    3   98.00000   88.00000  10.2%     -    0s
     0     0   98.00000    0    8   98.00000   98.00000  0.00%     -    0s

Cutting planes:
  Learned: 1
  Implied bound: 6
  MIR: 1
  Relax-and-lift: 4

Explored 1 nodes (78 simplex iterations) in 0.01 seconds (0.00 work units)
Thread count was 16 (of 16 available processors)

Solution count 7: 98 108 110 ... 166

Optimal solution found (tolerance 1.00e-04)
Best objective 9.800000000000e+01, best bound 9.800000000000e+01, gap 0.0000%
Warning: constraint name "precedence between 0,0 to 0,1 if x_[0,0,0,1,1]=0, i.e. 0,1 before 0,0" has a space
Warning: constraint name "precedence between 0,0 to 0,1 if x_[0,0,0,1,1]=0, i.e. 0,1 before 0,0" has a space
Warning: default constraint names used to write mps file
